
Gurobi 11.0.2 (win64) logging started Wed Aug 14 20:06:20 2024

Set parameter LogFile to value "D:\Documenti\Scuola\Laurea magistrale unibs\laurea-unibs-mkfsp\output\2024-08-14T16_44_40.946359\logs\instance09_bucket2.log"
Set parameter TimeLimit to value 500
Set parameter MIPGap to value 0
Gurobi Optimizer version 11.0.2 build v11.0.2rc0 (win64 - Windows 10.0 (19045.2))

CPU model: Intel(R) Core(TM) i5-4670 CPU @ 3.40GHz, instruction set [SSE2|AVX|AVX2]
Thread count: 4 physical cores, 4 logical processors, using up to 4 threads

Optimize a model with 2894 rows, 13215 columns and 370017 nonzeros
Model fingerprint: 0x310e937d
Variable types: 0 continuous, 13215 integer (13110 binary)
Coefficient statistics:
  Matrix range     [1e+00, 9e+03]
  Objective range  [6e+02, 9e+03]
  Bounds range     [1e+00, 1e+00]
  RHS range        [1e+00, 4e+05]
Found heuristic solution: objective 423287.00000
Presolve time: 0.75s
Presolved: 2894 rows, 13215 columns, 370017 nonzeros
Variable types: 0 continuous, 13215 integer (13110 binary)
Found heuristic solution: objective 479924.00000
Deterministic concurrent LP optimizer: primal and dual simplex
Showing primal log only...

Concurrent spin time: 0.00s

Solved with dual simplex

Root relaxation: objective 5.901600e+05, 762 iterations, 0.19 seconds (0.18 work units)

    Nodes    |    Current Node    |     Objective Bounds      |     Work
 Expl Unexpl |  Obj  Depth IntInf | Incumbent    BestBd   Gap | It/Node Time

H    0     0                    590160.00000 590160.000  0.00%     -    1s
     0     0 590160.000    0  559 590160.000 590160.000  0.00%     -    1s

Explored 1 nodes (762 simplex iterations) in 1.00 seconds (0.90 work units)
Thread count was 4 (of 4 available processors)

Solution count 3: 590160 479924 423287 

Optimal solution found (tolerance 0.00e+00)
Best objective 5.901600000000e+05, best bound 5.901600000000e+05, gap 0.0000%
